155	32	4	60	
14	19	24	19

0	0	0	0	0	0	3	1	2	3
1	0	6	0	0	9	2	15	29
2	0	0	1	3	9	3	4	5	7
3	2	4	0	0	2	3	6	17	24
4	7	5	6	4	1	1	11
5	0	0	0	8	2	2	14	25
6	0	0	8	1	10	2	8	10
7	0	0	6	3	5	1	9
8	4	0	6	2	9	1	23
9	0	0	9	1	4	1	12
10	0	6	4	5	1	2	16	20
11	0	0	9	4	4	1	13
12	2	10	0	5	6	2	13	15
13	0	9	0	7	8	1	18
14	0	8	0	0	7	3	19	22	27
15	7	8	0	0	3	1	16
16	6	7	7	0	10	1	18
17	4	1	7	0	1	2	25	28
18	3	4	0	0	5	1	26
19	0	2	0	0	6	2	23	24
20	5	7	0	4	5	1	21
21	0	0	0	9	1	1	22
22	0	1	0	0	4	1	26
23	0	0	8	0	3	2	29	30
24	0	6	3	0	8	1	26
25	8	3	6	0	2	2	29	30
26	9	0	0	0	10	1	30
27	0	0	1	7	3	1	28
28	3	0	8	0	4	1	31
29	10	0	0	5	9	1	31
30	0	2	0	4	4	1	31
31	0	0	0	0	0	0
